25 500
  0     35.0     35.0       0.0     1000.0      0.0       0.0       0.0  
  1     41.0     49.0      658.0     898.0     10.0       6.0      10.0  
  2     35.0     17.0      93.0      333.0     10.0      14.0       7.0  
  3     55.0     45.0      436.0     676.0     10.0      16.0      13.0  
  4     55.0     20.0      620.0     860.0     10.0      37.0      19.0  
  5     15.0     30.0      20.0      260.0     10.0       1.0      26.0  
  6     25.0     30.0      345.0     585.0     10.0       6.0       3.0  
  7     20.0     50.0      251.0     491.0     10.0       5.0       5.0  
  8     10.0     43.0      323.0     563.0     10.0      14.0       9.0  
  9     55.0     60.0      329.0     569.0     10.0      12.0      16.0  
 10     30.0     60.0      485.0     725.0     10.0       3.0      16.0  
 11     20.0     65.0      146.0     386.0     10.0       1.0      12.0  
 12     50.0     35.0      167.0     407.0     10.0      38.0      19.0  
 13     30.0     25.0      639.0     879.0     10.0      33.0      23.0  
 14     15.0     10.0      32.0      272.0     10.0      19.0      20.0  
 15     30.0      5.0      118.0     358.0     10.0       0.0       8.0  
 16     10.0     20.0      203.0     443.0     10.0      25.0      19.0  
 17      5.0     30.0      682.0     922.0     10.0       1.0       2.0  
 18     20.0     40.0      286.0     526.0     10.0       5.0      12.0  
 19     15.0     60.0      204.0     444.0     10.0      25.0      17.0  
 20     45.0     65.0      504.0     744.0     10.0      14.0       9.0  
 21     45.0     20.0      153.0     393.0     10.0      19.0      11.0  
 22     45.0     10.0      332.0     572.0     10.0       5.0      18.0  
 23     55.0      5.0      146.0     386.0     10.0      41.0      29.0  
 24     65.0     35.0      656.0     896.0     10.0       5.0       3.0  
 25     65.0     20.0      716.0     956.0     10.0       0.0       6.0  
